NAME : X-n1001-k43
COMMENT : "Generated by Uchoa, Pecin, Pessoa, Poggi, Subramanian, and Vidal (2013)"
TYPE : CVRP
DIMENSION : 1001
EDGE_WEIGHT_TYPE : EUC_2D
CAPACITY : 131
NODE_COORD_SECTION
1 2 857
2 407 102
3 915 965
4 797 45
5 997 241
6 650 683
7 748 248
8 99 174
9 2 545
10 277 689
11 568 771
12 76 105
13 117 973
14 171 971
15 327 183
16 277 697
17 269 246
18 670 18
19 51 901
20 951 696
21 710 102
22 61 465
23 348 606
24 551 243
25 524 793
26 89 582
27 900 748
28 235 368
29 122 587
30 449 781
31 970 38
32 362 490
33 742 267
34 289 115
35 898 957
36 996 922
37 951 633
38 713 779
39 603 247
40 402 363
41 143 0
42 274 608
43 81 422
44 550 408
45 43 699
46 482 575
47 909 254
48 613 37
49 202 575
50 297 297
51 736 288
52 464 127
53 499 491
54 635 531
55 796 328
56 184 941
57 641 824
58 863 673
59 396 950
60 555 631
61 664 966
62 301 260
63 425 990
64 559 746
65 431 827
66 724 472
67 847 51
68 888 721
69 136 331
70 859 627
71 206 5
72 429 381
73 798 918
74 886 684
75 123 488
76 779 445
77 764 43
78 938 743
79 800 398
80 734 20
81 211 678
82 601 545
83 512 403
84 796 106
85 644 810
86 416 973
87 115 435
88 667 91
89 395 941
90 374 546
91 546 191
92 754 255
93 124 588
94 423 929
95 314 637
96 668 268
97 321 786
98 960 423
99 11 499
100 721 692
101 803 584
102 337 475
103 806 773
104 429 478
105 214 547
106 361 166
107 944 218
108 12 468
109 527 255
110 789 724
111 250 862
112 892 896
113 545 806
114 832 12
115 628 495
116 194 884
117 395 309
118 655 39
119 558 175
120 247 947
121 36 394
122 877 451
123 599 724
124 83 489
125 754 703
126 65 35
127 889 230
128 938 307
129 662 394
130 248 220
131 642 549
132 747 86
133 201 643
134 400 574
135 653 798
136 653 904
137 643 138
138 951 307
139 793 865
140 500 726
141 585 586
142 285 769
143 511 898
144 336 912
145 454 207
146 239 951
147 335 815
148 911 708
149 2 239
150 602 984
151 372 799
152 177 756
153 816 435
154 617 639
155 806 796
156 793 584
157 803 561
158 479 831
159 397 20
160 618 113
161 702 902
162 838 111
163 989 451
164 215 154
165 581 757
166 294 174
167 997 332
168 350 909
169 335 941
170 906 354
171 920 675
172 493 469
173 187 284
174 678 127
175 831 755
176 316 319
177 188 134
178 73 608
179 884 613
180 193 831
181 717 851
182 508 52
183 809 556
184 705 769
185 983 312
186 847 359
187 415 658
188 132 789
189 520 413
190 913 564
191 90 256
192 960 936
193 693 559
194 980 347
195 300 456
196 376 144
197 192 177
198 272 525
199 88 626
200 772 743
201 540 206
202 474 559
203 575 901
204 241 949
205 583 602
206 215 48
207 460 683
208 81 368
209 998 835
210 585 234
211 522 137
212 294 501
213 788 392
214 621 498
215 116 698
216 81 236
217 788 277
218 817 861
219 678 560
220 351 354
221 156 507
222 617 486
223 218 189
224 213 23
225 884 616
226 923 177
227 829 814
228 479 307
229 285 153
230 584 878
231 176 928
232 166 656
233 507 183
234 907 171
235 7 792
236 995 412
237 22 787
238 149 784
239 649 933
240 885 309
241 131 560
242 22 81
243 502 640
244 462 970
245 465 114
246 192 569
247 547 473
248 557 408
249 480 579
250 775 395
251 845 753
252 701 529
253 962 95
254 842 847
255 31 68
256 627 629
257 524 322
258 918 853
259 823 774
260 775 894
261 109 935
262 478 480
263 511 488
264 785 899
265 487 121
266 453 440
267 470 598
268 1 111
269 756 89
270 728 583
271 647 753
272 973 391
273 842 559
274 637 397
275 72 370
276 948 485
277 999 268
278 471 517
279 350 131
280 381 534
281 310 467
282 973 212
283 164 485
284 429 565
285 186 426
286 838 897
287 779 143
288 452 1
289 866 928
290 214 623
291 532 586
292 513 152
293 915 772
294 204 585
295 343 558
296 877 720
297 730 272
298 364 617
299 210 569
300 514 296
301 33 761
302 202 695
303 706 395
304 597 866
305 376 83
306 679 434
307 483 578
308 0 299
309 639 101
310 709 590
311 774 925
312 804 864
313 528 192
314 660 561
315 888 7
316 788 712
317 79 750
318 854 884
319 710 665
320 939 390
321 156 683
322 62 737
323 207 501
324 944 334
325 952 915
326 14 440
327 923 386
328 693 370
329 485 885
330 890 951
331 478 956
332 782 216
333 104 50
334 822 370
335 73 108
336 7 981
337 987 382
338 397 439
339 986 513
340 871 661
341 636 866
342 154 39
343 70 100
344 75 647
345 383 5
346 86 692
347 263 570
348 26 218
349 892 317
350 139 60
351 76 883
352 336 44
353 648 837
354 713 447
355 98 769
356 316 688
357 470 613
358 157 295
359 499 223
360 482 100
361 3 209
362 280 692
363 525 6
364 54 122
365 220 208
366 838 860
367 0 143
368 455 989
369 923 705
370 41 665
371 829 426
372 809 821
373 238 811
374 57 114
375 490 911
376 445 135
377 126 154
378 502 856
379 543 422
380 395 335
381 873 378
382 947 675
383 127 46
384 895 216
385 590 641
386 415 0
387 456 639
388 881 466
389 721 116
390 884 403
391 323 319
392 495 158
393 534 496
394 784 89
395 600 973
396 582 263
397 630 484
398 498 412
399 737 749
400 187 137
401 433 302
402 864 360
403 262 566
404 63 28
405 698 186
406 669 65
407 280 605
408 163 577
409 7 891
410 156 301
411 977 815
412 144 312
413 272 181
414 524 978
415 112 407
416 865 155
417 232 344
418 418 650
419 529 362
420 889 916
421 952 677
422 443 10
423 644 925
424 982 797
425 328 995
426 652 395
427 954 103
428 614 890
429 583 127
430 54 278
431 534 176
432 457 678
433 769 423
434 111 776
435 537 183
436 887 534
437 263 242
438 238 143
439 693 433
440 481 223
441 276 463
442 301 278
443 813 997
444 522 400
445 342 979
446 121 219
447 282 213
448 495 110
449 824 196
450 974 643
451 567 187
452 588 289
453 415 542
454 84 369
455 711 288
456 192 263
457 634 955
458 134 858
459 836 650
460 401 251
461 330 390
462 757 708
463 640 675
464 512 860
465 179 319
466 36 160
467 902 529
468 526 587
469 186 229
470 15 596
471 979 645
472 647 323
473 182 123
474 184 38
475 302 219
476 781 849
477 330 18
478 991 649
479 887 717
480 37 331
481 616 448
482 331 231
483 822 365
484 230 835
485 359 963
486 60 730
487 776 660
488 376 810
489 703 627
490 481 728
491 495 862
492 192 598
493 121 520
494 854 951
495 305 495
496 603 933
497 916 240
498 889 765
499 608 852
500 233 438
501 715 397
502 250 676
503 385 490
504 911 127
505 977 120
506 57 831
507 695 732
508 168 907
509 487 552
510 379 518
511 175 165
512 741 69
513 859 350
514 741 665
515 542 145
516 65 804
517 34 189
518 618 340
519 87 291
520 784 685
521 785 260
522 943 254
523 183 988
524 239 180
525 206 769
526 597 257
527 780 886
528 981 148
529 227 435
530 918 839
531 905 402
532 257 337
533 100 996
534 194 631
535 164 219
536 524 887
537 909 704
538 169 906
539 241 785
540 937 826
541 62 828
542 538 74
543 399 812
544 855 575
545 802 150
546 451 192
547 979 779
548 342 445
549 692 472
550 9 452
551 897 431
552 665 139
553 128 106
554 768 689
555 150 279
556 791 248
557 836 385
558 235 877
559 315 98
560 895 755
561 363 154
562 373 633
563 42 430
564 850 534
565 592 274
566 95 712
567 565 82
568 736 849
569 227 124
570 770 512
571 191 627
572 334 855
573 307 97
574 718 570
575 808 903
576 630 96
577 694 101
578 714 65
579 380 514
580 311 9
581 581 60
582 483 315
583 452 330
584 269 422
585 986 414
586 207 280
587 645 986
588 97 50
589 258 620
590 19 60
591 159 382
592 594 3
593 575 648
594 505 396
595 271 186
596 259 278
597 440 484
598 204 169
599 839 329
600 796 265
601 184 633
602 110 901
603 794 510
604 612 243
605 471 610
606 168 254
607 651 691
608 317 884
609 788 451
610 778 532
611 999 602
612 223 747
613 951 203
614 290 179
615 5 237
616 848 785
617 606 434
618 511 279
619 919 357
620 409 840
621 726 723
622 198 57
623 563 987
624 330 143
625 112 165
626 564 379
627 841 919
628 736 821
629 895 875
630 772 252
631 233 210
632 956 386
633 29 477
634 440 322
635 300 683
636 19 243
637 804 616
638 139 376
639 177 425
640 164 188
641 330 450
642 894 845
643 81 292
644 327 908
645 52 153
646 681 294
647 806 403
648 650 476
649 238 416
650 930 935
651 220 643
652 976 863
653 487 945
654 23 117
655 777 163
656 352 425
657 224 959
658 800 833
659 1 880
660 530 411
661 205 696
662 47 211
663 1 975
664 463 461
665 12 909
666 9 25
667 960 395
668 808 103
669 555 364
670 881 187
671 640 356
672 423 259
673 574 348
674 312 251
675 881 836
676 874 740
677 135 158
678 904 910
679 102 78
680 926 747
681 133 610
682 712 498
683 801 94
684 46 372
685 792 533
686 744 492
687 49 160
688 910 98
689 161 275
690 462 5
691 2 317
692 892 299
693 623 197
694 280 296
695 390 873
696 569 740
697 382 176
698 67 260
699 22 899
700 224 74
701 976 106
702 643 937
703 286 733
704 343 347
705 768 396
706 281 2
707 646 481
708 113 496
709 449 469
710 209 276
711 146 512
712 925 847
713 541 265
714 108 218
715 909 962
716 873 616
717 891 741
718 610 429
719 632 229
720 254 413
721 174 367
722 801 148
723 94 483
724 70 736
725 396 630
726 722 757
727 652 154
728 524 473
729 390 532
730 865 278
731 739 441
732 522 405
733 315 92
734 676 875
735 367 807
736 174 702
737 161 844
738 52 348
739 628 479
740 294 425
741 245 335
742 849 644
743 188 955
744 898 25
745 712 633
746 369 346
747 795 493
748 704 846
749 33 817
750 872 179
751 774 620
752 635 620
753 512 482
754 67 510
755 527 626
756 316 970
757 777 242
758 622 844
759 35 70
760 577 911
761 285 224
762 652 328
763 358 274
764 950 346
765 824 571
766 228 251
767 133 826
768 166 573
769 5 941
770 876 539
771 74 80
772 668 777
773 773 7
774 71 263
775 476 656
776 94 533
777 895 963
778 744 131
779 710 940
780 790 311
781 470 10
782 778 994
783 726 581
784 301 968
785 425 873
786 510 342
787 551 998
788 880 251
789 13 286
790 229 807
791 791 870
792 980 301
793 319 503
794 678 661
795 131 647
796 756 147
797 752 792
798 552 315
799 833 41
800 570 210
801 550 937
802 0 825
803 237 533
804 484 801
805 281 735
806 126 383
807 261 867
808 765 621
809 340 504
810 483 824
811 904 551
812 380 261
813 450 572
814 581 121
815 737 364
816 504 708
817 162 788
818 379 894
819 415 846
820 11 831
821 357 10
822 794 896
823 168 803
824 981 897
825 740 619
826 192 525
827 307 810
828 193 59
829 348 6
830 896 319
831 718 704
832 635 865
833 44 81
834 677 455
835 365 89
836 993 748
837 21 769
838 264 253
839 794 836
840 158 537
841 299 507
842 837 673
843 625 578
844 726 948
845 225 753
846 529 813
847 57 217
848 493 88
849 977 476
850 926 415
851 370 421
852 960 959
853 56 666
854 568 361
855 418 120
856 830 947
857 799 823
858 447 171
859 136 12
860 510 332
861 864 465
862 510 511
863 37 62
864 610 786
865 739 627
866 155 680
867 710 998
868 443 869
869 243 357
870 736 125
871 323 814
872 526 532
873 20 222
874 54 930
875 124 270
876 76 619
877 43 801
878 872 318
879 938 393
880 518 361
881 114 189
882 398 156
883 666 975
884 976 884
885 362 501
886 799 452
887 791 71
888 778 700
889 745 362
890 691 851
891 870 506
892 957 214
893 547 416
894 645 140
895 41 367
896 747 223
897 884 821
898 686 750
899 520 508
900 86 411
901 196 752
902 790 247
903 100 49
904 116 857
905 754 899
906 387 843
907 653 877
908 682 525
909 156 967
910 861 886
911 628 139
912 829 776
913 829 177
914 48 367
915 553 756
916 308 857
917 525 768
918 739 419
919 534 906
920 74 407
921 829 489
922 174 812
923 756 539
924 783 958
925 651 110
926 551 459
927 980 868
928 295 427
929 729 915
930 518 915
931 46 872
932 172 627
933 130 202
934 677 872
935 374 795
936 181 760
937 751 788
938 83 664
939 459 649
940 792 917
941 813 502
942 746 768
943 377 708
944 676 582
945 367 690
946 124 298
947 280 13
948 209 128
949 794 714
950 636 512
951 901 875
952 970 319
953 301 452
954 146 305
955 45 362
956 239 811
957 423 798
958 477 717
959 102 815
960 504 648
961 524 158
962 902 424
963 538 337
964 951 766
965 296 959
966 647 246
967 395 299
968 970 492
969 260 138
970 394 642
971 795 836
972 657 44
973 263 655
974 776 212
975 436 346
976 309 29
977 982 977
978 879 198
979 99 1000
980 927 947
981 419 592
982 742 981
983 138 226
984 714 685
985 410 503
986 858 581
987 988 225
988 576 24
989 114 728
990 673 162
991 660 459
992 624 134
993 520 801
994 86 528
995 245 156
996 671 77
997 944 270
998 951 622
999 412 813
1000 732 304
1001 532 201
PICKUP_AND_DELIVERY_SECTION
1 0 0 1000000000 0 0 0
2 0 0 1000000000 0 0 6
3 0 0 1000000000 0 1 0
4 0 0 1000000000 0 0 10
5 0 0 1000000000 0 7 0
6 0 0 1000000000 0 0 6
7 0 0 1000000000 0 2 0
8 0 0 1000000000 0 0 8
9 0 0 1000000000 0 7 0
10 0 0 1000000000 0 0 3
11 0 0 1000000000 0 5 0
12 0 0 1000000000 0 0 1
13 0 0 1000000000 0 4 0
14 0 0 1000000000 0 0 10
15 0 0 1000000000 0 4 0
16 0 0 1000000000 0 0 10
17 0 0 1000000000 0 3 0
18 0 0 1000000000 0 0 6
19 0 0 1000000000 0 4 0
20 0 0 1000000000 0 0 3
21 0 0 1000000000 0 10 0
22 0 0 1000000000 0 0 8
23 0 0 1000000000 0 6 0
24 0 0 1000000000 0 0 7
25 0 0 1000000000 0 7 0
26 0 0 1000000000 0 0 4
27 0 0 1000000000 0 1 0
28 0 0 1000000000 0 0 5
29 0 0 1000000000 0 3 0
30 0 0 1000000000 0 0 6
31 0 0 1000000000 0 8 0
32 0 0 1000000000 0 0 5
33 0 0 1000000000 0 9 0
34 0 0 1000000000 0 0 6
35 0 0 1000000000 0 9 0
36 0 0 1000000000 0 0 9
37 0 0 1000000000 0 4 0
38 0 0 1000000000 0 0 1
39 0 0 1000000000 0 9 0
40 0 0 1000000000 0 0 10
41 0 0 1000000000 0 2 0
42 0 0 1000000000 0 0 4
43 0 0 1000000000 0 1 0
44 0 0 1000000000 0 0 10
45 0 0 1000000000 0 1 0
46 0 0 1000000000 0 0 10
47 0 0 1000000000 0 2 0
48 0 0 1000000000 0 0 10
49 0 0 1000000000 0 1 0
50 0 0 1000000000 0 0 4
51 0 0 1000000000 0 5 0
52 0 0 1000000000 0 0 5
53 0 0 1000000000 0 6 0
54 0 0 1000000000 0 0 6
55 0 0 1000000000 0 9 0
56 0 0 1000000000 0 0 4
57 0 0 1000000000 0 4 0
58 0 0 1000000000 0 0 9
59 0 0 1000000000 0 3 0
60 0 0 1000000000 0 0 7
61 0 0 1000000000 0 6 0
62 0 0 1000000000 0 0 8
63 0 0 1000000000 0 5 0
64 0 0 1000000000 0 0 9
65 0 0 1000000000 0 3 0
66 0 0 1000000000 0 0 9
67 0 0 1000000000 0 1 0
68 0 0 1000000000 0 0 1
69 0 0 1000000000 0 5 0
70 0 0 1000000000 0 0 7
71 0 0 1000000000 0 6 0
72 0 0 1000000000 0 0 6
73 0 0 1000000000 0 9 0
74 0 0 1000000000 0 0 3
75 0 0 1000000000 0 8 0
76 0 0 1000000000 0 0 5
77 0 0 1000000000 0 9 0
78 0 0 1000000000 0 0 10
79 0 0 1000000000 0 9 0
80 0 0 1000000000 0 0 5
81 0 0 1000000000 0 9 0
82 0 0 1000000000 0 0 5
83 0 0 1000000000 0 10 0
84 0 0 1000000000 0 0 1
85 0 0 1000000000 0 2 0
86 0 0 1000000000 0 0 9
87 0 0 1000000000 0 3 0
88 0 0 1000000000 0 0 8
89 0 0 1000000000 0 2 0
90 0 0 1000000000 0 0 6
91 0 0 1000000000 0 1 0
92 0 0 1000000000 0 0 3
93 0 0 1000000000 0 1 0
94 0 0 1000000000 0 0 8
95 0 0 1000000000 0 8 0
96 0 0 1000000000 0 0 6
97 0 0 1000000000 0 9 0
98 0 0 1000000000 0 0 5
99 0 0 1000000000 0 5 0
100 0 0 1000000000 0 0 9
101 0 0 1000000000 0 1 0
102 0 0 1000000000 0 0 9
103 0 0 1000000000 0 6 0
104 0 0 1000000000 0 0 3
105 0 0 1000000000 0 4 0
106 0 0 1000000000 0 0 9
107 0 0 1000000000 0 7 0
108 0 0 1000000000 0 0 1
109 0 0 1000000000 0 9 0
110 0 0 1000000000 0 0 6
111 0 0 1000000000 0 10 0
112 0 0 1000000000 0 0 2
113 0 0 1000000000 0 3 0
114 0 0 1000000000 0 0 9
115 0 0 1000000000 0 6 0
116 0 0 1000000000 0 0 4
117 0 0 1000000000 0 9 0
118 0 0 1000000000 0 0 10
119 0 0 1000000000 0 3 0
120 0 0 1000000000 0 0 7
121 0 0 1000000000 0 6 0
122 0 0 1000000000 0 0 6
123 0 0 1000000000 0 4 0
124 0 0 1000000000 0 0 5
125 0 0 1000000000 0 9 0
126 0 0 1000000000 0 0 2
127 0 0 1000000000 0 2 0
128 0 0 1000000000 0 0 4
129 0 0 1000000000 0 5 0
130 0 0 1000000000 0 0 6
131 0 0 1000000000 0 1 0
132 0 0 1000000000 0 0 5
133 0 0 1000000000 0 4 0
134 0 0 1000000000 0 0 3
135 0 0 1000000000 0 4 0
136 0 0 1000000000 0 0 9
137 0 0 1000000000 0 4 0
138 0 0 1000000000 0 0 3
139 0 0 1000000000 0 5 0
140 0 0 1000000000 0 0 10
141 0 0 1000000000 0 2 0
142 0 0 1000000000 0 0 5
143 0 0 1000000000 0 8 0
144 0 0 1000000000 0 0 8
145 0 0 1000000000 0 10 0
146 0 0 1000000000 0 0 7
147 0 0 1000000000 0 3 0
148 0 0 1000000000 0 0 6
149 0 0 1000000000 0 9 0
150 0 0 1000000000 0 0 5
151 0 0 1000000000 0 2 0
152 0 0 1000000000 0 0 10
153 0 0 1000000000 0 4 0
154 0 0 1000000000 0 0 9
155 0 0 1000000000 0 2 0
156 0 0 1000000000 0 0 6
157 0 0 1000000000 0 1 0
158 0 0 1000000000 0 0 6
159 0 0 1000000000 0 1 0
160 0 0 1000000000 0 0 1
161 0 0 1000000000 0 7 0
162 0 0 1000000000 0 0 10
163 0 0 1000000000 0 7 0
164 0 0 1000000000 0 0 3
165 0 0 1000000000 0 6 0
166 0 0 1000000000 0 0 4
167 0 0 1000000000 0 4 0
168 0 0 1000000000 0 0 3
169 0 0 1000000000 0 5 0
170 0 0 1000000000 0 0 4
171 0 0 1000000000 0 2 0
172 0 0 1000000000 0 0 5
173 0 0 1000000000 0 1 0
174 0 0 1000000000 0 0 10
175 0 0 1000000000 0 7 0
176 0 0 1000000000 0 0 3
177 0 0 1000000000 0 7 0
178 0 0 1000000000 0 0 10
179 0 0 1000000000 0 10 0
180 0 0 1000000000 0 0 2
181 0 0 1000000000 0 3 0
182 0 0 1000000000 0 0 10
183 0 0 1000000000 0 6 0
184 0 0 1000000000 0 0 3
185 0 0 1000000000 0 1 0
186 0 0 1000000000 0 0 4
187 0 0 1000000000 0 3 0
188 0 0 1000000000 0 0 10
189 0 0 1000000000 0 10 0
190 0 0 1000000000 0 0 4
191 0 0 1000000000 0 8 0
192 0 0 1000000000 0 0 5
193 0 0 1000000000 0 2 0
194 0 0 1000000000 0 0 8
195 0 0 1000000000 0 2 0
196 0 0 1000000000 0 0 5
197 0 0 1000000000 0 8 0
198 0 0 1000000000 0 0 7
199 0 0 1000000000 0 10 0
200 0 0 1000000000 0 0 1
201 0 0 1000000000 0 5 0
202 0 0 1000000000 0 0 4
203 0 0 1000000000 0 7 0
204 0 0 1000000000 0 0 8
205 0 0 1000000000 0 7 0
206 0 0 1000000000 0 0 8
207 0 0 1000000000 0 3 0
208 0 0 1000000000 0 0 2
209 0 0 1000000000 0 9 0
210 0 0 1000000000 0 0 7
211 0 0 1000000000 0 5 0
212 0 0 1000000000 0 0 3
213 0 0 1000000000 0 3 0
214 0 0 1000000000 0 0 10
215 0 0 1000000000 0 8 0
216 0 0 1000000000 0 0 5
217 0 0 1000000000 0 5 0
218 0 0 1000000000 0 0 3
219 0 0 1000000000 0 7 0
220 0 0 1000000000 0 0 9
221 0 0 1000000000 0 5 0
222 0 0 1000000000 0 0 2
223 0 0 1000000000 0 7 0
224 0 0 1000000000 0 0 3
225 0 0 1000000000 0 6 0
226 0 0 1000000000 0 0 1
227 0 0 1000000000 0 6 0
228 0 0 1000000000 0 0 3
229 0 0 1000000000 0 1 0
230 0 0 1000000000 0 0 8
231 0 0 1000000000 0 5 0
232 0 0 1000000000 0 0 1
233 0 0 1000000000 0 9 0
234 0 0 1000000000 0 0 2
235 0 0 1000000000 0 9 0
236 0 0 1000000000 0 0 3
237 0 0 1000000000 0 10 0
238 0 0 1000000000 0 0 3
239 0 0 1000000000 0 8 0
240 0 0 1000000000 0 0 6
241 0 0 1000000000 0 4 0
242 0 0 1000000000 0 0 9
243 0 0 1000000000 0 9 0
244 0 0 1000000000 0 0 3
245 0 0 1000000000 0 10 0
246 0 0 1000000000 0 0 10
247 0 0 1000000000 0 1 0
248 0 0 1000000000 0 0 4
249 0 0 1000000000 0 1 0
250 0 0 1000000000 0 0 5
251 0 0 1000000000 0 2 0
252 0 0 1000000000 0 0 5
253 0 0 1000000000 0 10 0
254 0 0 1000000000 0 0 6
255 0 0 1000000000 0 4 0
256 0 0 1000000000 0 0 3
257 0 0 1000000000 0 6 0
258 0 0 1000000000 0 0 10
259 0 0 1000000000 0 7 0
260 0 0 1000000000 0 0 2
261 0 0 1000000000 0 8 0
262 0 0 1000000000 0 0 1
263 0 0 1000000000 0 5 0
264 0 0 1000000000 0 0 2
265 0 0 1000000000 0 5 0
266 0 0 1000000000 0 0 9
267 0 0 1000000000 0 7 0
268 0 0 1000000000 0 0 2
269 0 0 1000000000 0 4 0
270 0 0 1000000000 0 0 1
271 0 0 1000000000 0 7 0
272 0 0 1000000000 0 0 10
273 0 0 1000000000 0 8 0
274 0 0 1000000000 0 0 6
275 0 0 1000000000 0 10 0
276 0 0 1000000000 0 0 4
277 0 0 1000000000 0 6 0
278 0 0 1000000000 0 0 6
279 0 0 1000000000 0 1 0
280 0 0 1000000000 0 0 7
281 0 0 1000000000 0 7 0
282 0 0 1000000000 0 0 2
283 0 0 1000000000 0 8 0
284 0 0 1000000000 0 0 2
285 0 0 1000000000 0 5 0
286 0 0 1000000000 0 0 10
287 0 0 1000000000 0 1 0
288 0 0 1000000000 0 0 3
289 0 0 1000000000 0 9 0
290 0 0 1000000000 0 0 3
291 0 0 1000000000 0 5 0
292 0 0 1000000000 0 0 3
293 0 0 1000000000 0 9 0
294 0 0 1000000000 0 0 3
295 0 0 1000000000 0 3 0
296 0 0 1000000000 0 0 2
297 0 0 1000000000 0 8 0
298 0 0 1000000000 0 0 5
299 0 0 1000000000 0 10 0
300 0 0 1000000000 0 0 8
301 0 0 1000000000 0 9 0
302 0 0 1000000000 0 0 7
303 0 0 1000000000 0 4 0
304 0 0 1000000000 0 0 3
305 0 0 1000000000 0 8 0
306 0 0 1000000000 0 0 8
307 0 0 1000000000 0 8 0
308 0 0 1000000000 0 0 8
309 0 0 1000000000 0 3 0
310 0 0 1000000000 0 0 2
311 0 0 1000000000 0 10 0
312 0 0 1000000000 0 0 2
313 0 0 1000000000 0 10 0
314 0 0 1000000000 0 0 3
315 0 0 1000000000 0 3 0
316 0 0 1000000000 0 0 3
317 0 0 1000000000 0 3 0
318 0 0 1000000000 0 0 9
319 0 0 1000000000 0 3 0
320 0 0 1000000000 0 0 1
321 0 0 1000000000 0 10 0
322 0 0 1000000000 0 0 2
323 0 0 1000000000 0 9 0
324 0 0 1000000000 0 0 9
325 0 0 1000000000 0 7 0
326 0 0 1000000000 0 0 8
327 0 0 1000000000 0 3 0
328 0 0 1000000000 0 0 7
329 0 0 1000000000 0 6 0
330 0 0 1000000000 0 0 1
331 0 0 1000000000 0 8 0
332 0 0 1000000000 0 0 3
333 0 0 1000000000 0 7 0
334 0 0 1000000000 0 0 7
335 0 0 1000000000 0 2 0
336 0 0 1000000000 0 0 3
337 0 0 1000000000 0 10 0
338 0 0 1000000000 0 0 7
339 0 0 1000000000 0 10 0
340 0 0 1000000000 0 0 10
341 0 0 1000000000 0 2 0
342 0 0 1000000000 0 0 4
343 0 0 1000000000 0 4 0
344 0 0 1000000000 0 0 7
345 0 0 1000000000 0 5 0
346 0 0 1000000000 0 0 8
347 0 0 1000000000 0 7 0
348 0 0 1000000000 0 0 9
349 0 0 1000000000 0 4 0
350 0 0 1000000000 0 0 10
351 0 0 1000000000 0 5 0
352 0 0 1000000000 0 0 5
353 0 0 1000000000 0 7 0
354 0 0 1000000000 0 0 7
355 0 0 1000000000 0 7 0
356 0 0 1000000000 0 0 4
357 0 0 1000000000 0 3 0
358 0 0 1000000000 0 0 1
359 0 0 1000000000 0 9 0
360 0 0 1000000000 0 0 6
361 0 0 1000000000 0 5 0
362 0 0 1000000000 0 0 6
363 0 0 1000000000 0 8 0
364 0 0 1000000000 0 0 2
365 0 0 1000000000 0 10 0
366 0 0 1000000000 0 0 5
367 0 0 1000000000 0 7 0
368 0 0 1000000000 0 0 7
369 0 0 1000000000 0 1 0
370 0 0 1000000000 0 0 1
371 0 0 1000000000 0 7 0
372 0 0 1000000000 0 0 1
373 0 0 1000000000 0 5 0
374 0 0 1000000000 0 0 8
375 0 0 1000000000 0 6 0
376 0 0 1000000000 0 0 10
377 0 0 1000000000 0 9 0
378 0 0 1000000000 0 0 8
379 0 0 1000000000 0 9 0
380 0 0 1000000000 0 0 5
381 0 0 1000000000 0 1 0
382 0 0 1000000000 0 0 8
383 0 0 1000000000 0 9 0
384 0 0 1000000000 0 0 2
385 0 0 1000000000 0 6 0
386 0 0 1000000000 0 0 8
387 0 0 1000000000 0 9 0
388 0 0 1000000000 0 0 10
389 0 0 1000000000 0 8 0
390 0 0 1000000000 0 0 9
391 0 0 1000000000 0 6 0
392 0 0 1000000000 0 0 7
393 0 0 1000000000 0 1 0
394 0 0 1000000000 0 0 1
395 0 0 1000000000 0 2 0
396 0 0 1000000000 0 0 6
397 0 0 1000000000 0 9 0
398 0 0 1000000000 0 0 8
399 0 0 1000000000 0 2 0
400 0 0 1000000000 0 0 4
401 0 0 1000000000 0 7 0
402 0 0 1000000000 0 0 2
403 0 0 1000000000 0 7 0
404 0 0 1000000000 0 0 4
405 0 0 1000000000 0 3 0
406 0 0 1000000000 0 0 9
407 0 0 1000000000 0 1 0
408 0 0 1000000000 0 0 8
409 0 0 1000000000 0 8 0
410 0 0 1000000000 0 0 4
411 0 0 1000000000 0 8 0
412 0 0 1000000000 0 0 3
413 0 0 1000000000 0 5 0
414 0 0 1000000000 0 0 7
415 0 0 1000000000 0 10 0
416 0 0 1000000000 0 0 1
417 0 0 1000000000 0 3 0
418 0 0 1000000000 0 0 6
419 0 0 1000000000 0 5 0
420 0 0 1000000000 0 0 9
421 0 0 1000000000 0 4 0
422 0 0 1000000000 0 0 6
423 0 0 1000000000 0 7 0
424 0 0 1000000000 0 0 7
425 0 0 1000000000 0 1 0
426 0 0 1000000000 0 0 7
427 0 0 1000000000 0 6 0
428 0 0 1000000000 0 0 8
429 0 0 1000000000 0 5 0
430 0 0 1000000000 0 0 10
431 0 0 1000000000 0 1 0
432 0 0 1000000000 0 0 1
433 0 0 1000000000 0 5 0
434 0 0 1000000000 0 0 9
435 0 0 1000000000 0 10 0
436 0 0 1000000000 0 0 3
437 0 0 1000000000 0 8 0
438 0 0 1000000000 0 0 1
439 0 0 1000000000 0 1 0
440 0 0 1000000000 0 0 10
441 0 0 1000000000 0 1 0
442 0 0 1000000000 0 0 4
443 0 0 1000000000 0 3 0
444 0 0 1000000000 0 0 5
445 0 0 1000000000 0 7 0
446 0 0 1000000000 0 0 4
447 0 0 1000000000 0 3 0
448 0 0 1000000000 0 0 8
449 0 0 1000000000 0 6 0
450 0 0 1000000000 0 0 10
451 0 0 1000000000 0 2 0
452 0 0 1000000000 0 0 5
453 0 0 1000000000 0 3 0
454 0 0 1000000000 0 0 8
455 0 0 1000000000 0 6 0
456 0 0 1000000000 0 0 5
457 0 0 1000000000 0 2 0
458 0 0 1000000000 0 0 3
459 0 0 1000000000 0 1 0
460 0 0 1000000000 0 0 1
461 0 0 1000000000 0 1 0
462 0 0 1000000000 0 0 7
463 0 0 1000000000 0 8 0
464 0 0 1000000000 0 0 7
465 0 0 1000000000 0 2 0
466 0 0 1000000000 0 0 3
467 0 0 1000000000 0 4 0
468 0 0 1000000000 0 0 10
469 0 0 1000000000 0 1 0
470 0 0 1000000000 0 0 1
471 0 0 1000000000 0 3 0
472 0 0 1000000000 0 0 3
473 0 0 1000000000 0 2 0
474 0 0 1000000000 0 0 1
475 0 0 1000000000 0 3 0
476 0 0 1000000000 0 0 5
477 0 0 1000000000 0 9 0
478 0 0 1000000000 0 0 3
479 0 0 1000000000 0 10 0
480 0 0 1000000000 0 0 3
481 0 0 1000000000 0 1 0
482 0 0 1000000000 0 0 2
483 0 0 1000000000 0 10 0
484 0 0 1000000000 0 0 1
485 0 0 1000000000 0 6 0
486 0 0 1000000000 0 0 10
487 0 0 1000000000 0 8 0
488 0 0 1000000000 0 0 8
489 0 0 1000000000 0 10 0
490 0 0 1000000000 0 0 10
491 0 0 1000000000 0 6 0
492 0 0 1000000000 0 0 8
493 0 0 1000000000 0 7 0
494 0 0 1000000000 0 0 4
495 0 0 1000000000 0 7 0
496 0 0 1000000000 0 0 7
497 0 0 1000000000 0 4 0
498 0 0 1000000000 0 0 5
499 0 0 1000000000 0 8 0
500 0 0 1000000000 0 0 7
501 0 0 1000000000 0 4 0
502 0 0 1000000000 0 0 4
503 0 0 1000000000 0 8 0
504 0 0 1000000000 0 0 5
505 0 0 1000000000 0 8 0
506 0 0 1000000000 0 0 4
507 0 0 1000000000 0 7 0
508 0 0 1000000000 0 0 5
509 0 0 1000000000 0 3 0
510 0 0 1000000000 0 0 9
511 0 0 1000000000 0 7 0
512 0 0 1000000000 0 0 2
513 0 0 1000000000 0 4 0
514 0 0 1000000000 0 0 1
515 0 0 1000000000 0 8 0
516 0 0 1000000000 0 0 9
517 0 0 1000000000 0 5 0
518 0 0 1000000000 0 0 7
519 0 0 1000000000 0 6 0
520 0 0 1000000000 0 0 3
521 0 0 1000000000 0 1 0
522 0 0 1000000000 0 0 9
523 0 0 1000000000 0 9 0
524 0 0 1000000000 0 0 2
525 0 0 1000000000 0 6 0
526 0 0 1000000000 0 0 7
527 0 0 1000000000 0 2 0
528 0 0 1000000000 0 0 2
529 0 0 1000000000 0 7 0
530 0 0 1000000000 0 0 4
531 0 0 1000000000 0 2 0
532 0 0 1000000000 0 0 9
533 0 0 1000000000 0 9 0
534 0 0 1000000000 0 0 5
535 0 0 1000000000 0 3 0
536 0 0 1000000000 0 0 4
537 0 0 1000000000 0 7 0
538 0 0 1000000000 0 0 4
539 0 0 1000000000 0 4 0
540 0 0 1000000000 0 0 8
541 0 0 1000000000 0 10 0
542 0 0 1000000000 0 0 9
543 0 0 1000000000 0 7 0
544 0 0 1000000000 0 0 4
545 0 0 1000000000 0 2 0
546 0 0 1000000000 0 0 8
547 0 0 1000000000 0 6 0
548 0 0 1000000000 0 0 2
549 0 0 1000000000 0 1 0
550 0 0 1000000000 0 0 5
551 0 0 1000000000 0 5 0
552 0 0 1000000000 0 0 10
553 0 0 1000000000 0 3 0
554 0 0 1000000000 0 0 9
555 0 0 1000000000 0 10 0
556 0 0 1000000000 0 0 5
557 0 0 1000000000 0 9 0
558 0 0 1000000000 0 0 10
559 0 0 1000000000 0 8 0
560 0 0 1000000000 0 0 8
561 0 0 1000000000 0 9 0
562 0 0 1000000000 0 0 1
563 0 0 1000000000 0 5 0
564 0 0 1000000000 0 0 6
565 0 0 1000000000 0 7 0
566 0 0 1000000000 0 0 9
567 0 0 1000000000 0 10 0
568 0 0 1000000000 0 0 7
569 0 0 1000000000 0 4 0
570 0 0 1000000000 0 0 10
571 0 0 1000000000 0 3 0
572 0 0 1000000000 0 0 7
573 0 0 1000000000 0 1 0
574 0 0 1000000000 0 0 7
575 0 0 1000000000 0 5 0
576 0 0 1000000000 0 0 6
577 0 0 1000000000 0 1 0
578 0 0 1000000000 0 0 3
579 0 0 1000000000 0 1 0
580 0 0 1000000000 0 0 3
581 0 0 1000000000 0 6 0
582 0 0 1000000000 0 0 9
583 0 0 1000000000 0 8 0
584 0 0 1000000000 0 0 5
585 0 0 1000000000 0 2 0
586 0 0 1000000000 0 0 1
587 0 0 1000000000 0 7 0
588 0 0 1000000000 0 0 1
589 0 0 1000000000 0 7 0
590 0 0 1000000000 0 0 9
591 0 0 1000000000 0 8 0
592 0 0 1000000000 0 0 3
593 0 0 1000000000 0 5 0
594 0 0 1000000000 0 0 7
595 0 0 1000000000 0 6 0
596 0 0 1000000000 0 0 3
597 0 0 1000000000 0 9 0
598 0 0 1000000000 0 0 1
599 0 0 1000000000 0 3 0
600 0 0 1000000000 0 0 3
601 0 0 1000000000 0 6 0
602 0 0 1000000000 0 0 3
603 0 0 1000000000 0 4 0
604 0 0 1000000000 0 0 5
605 0 0 1000000000 0 9 0
606 0 0 1000000000 0 0 9
607 0 0 1000000000 0 4 0
608 0 0 1000000000 0 0 6
609 0 0 1000000000 0 8 0
610 0 0 1000000000 0 0 7
611 0 0 1000000000 0 4 0
612 0 0 1000000000 0 0 4
613 0 0 1000000000 0 1 0
614 0 0 1000000000 0 0 4
615 0 0 1000000000 0 10 0
616 0 0 1000000000 0 0 6
617 0 0 1000000000 0 5 0
618 0 0 1000000000 0 0 6
619 0 0 1000000000 0 10 0
620 0 0 1000000000 0 0 2
621 0 0 1000000000 0 2 0
622 0 0 1000000000 0 0 10
623 0 0 1000000000 0 7 0
624 0 0 1000000000 0 0 5
625 0 0 1000000000 0 2 0
626 0 0 1000000000 0 0 1
627 0 0 1000000000 0 3 0
628 0 0 1000000000 0 0 2
629 0 0 1000000000 0 8 0
630 0 0 1000000000 0 0 8
631 0 0 1000000000 0 7 0
632 0 0 1000000000 0 0 9
633 0 0 1000000000 0 10 0
634 0 0 1000000000 0 0 3
635 0 0 1000000000 0 5 0
636 0 0 1000000000 0 0 5
637 0 0 1000000000 0 5 0
638 0 0 1000000000 0 0 10
639 0 0 1000000000 0 8 0
640 0 0 1000000000 0 0 3
641 0 0 1000000000 0 10 0
642 0 0 1000000000 0 0 9
643 0 0 1000000000 0 3 0
644 0 0 1000000000 0 0 9
645 0 0 1000000000 0 8 0
646 0 0 1000000000 0 0 5
647 0 0 1000000000 0 5 0
648 0 0 1000000000 0 0 2
649 0 0 1000000000 0 7 0
650 0 0 1000000000 0 0 3
651 0 0 1000000000 0 8 0
652 0 0 1000000000 0 0 1
653 0 0 1000000000 0 6 0
654 0 0 1000000000 0 0 7
655 0 0 1000000000 0 8 0
656 0 0 1000000000 0 0 2
657 0 0 1000000000 0 8 0
658 0 0 1000000000 0 0 4
659 0 0 1000000000 0 7 0
660 0 0 1000000000 0 0 6
661 0 0 1000000000 0 4 0
662 0 0 1000000000 0 0 3
663 0 0 1000000000 0 7 0
664 0 0 1000000000 0 0 4
665 0 0 1000000000 0 2 0
666 0 0 1000000000 0 0 2
667 0 0 1000000000 0 5 0
668 0 0 1000000000 0 0 9
669 0 0 1000000000 0 10 0
670 0 0 1000000000 0 0 5
671 0 0 1000000000 0 2 0
672 0 0 1000000000 0 0 3
673 0 0 1000000000 0 3 0
674 0 0 1000000000 0 0 10
675 0 0 1000000000 0 8 0
676 0 0 1000000000 0 0 10
677 0 0 1000000000 0 9 0
678 0 0 1000000000 0 0 9
679 0 0 1000000000 0 7 0
680 0 0 1000000000 0 0 9
681 0 0 1000000000 0 6 0
682 0 0 1000000000 0 0 2
683 0 0 1000000000 0 1 0
684 0 0 1000000000 0 0 10
685 0 0 1000000000 0 10 0
686 0 0 1000000000 0 0 6
687 0 0 1000000000 0 6 0
688 0 0 1000000000 0 0 2
689 0 0 1000000000 0 8 0
690 0 0 1000000000 0 0 6
691 0 0 1000000000 0 5 0
692 0 0 1000000000 0 0 8
693 0 0 1000000000 0 10 0
694 0 0 1000000000 0 0 3
695 0 0 1000000000 0 5 0
696 0 0 1000000000 0 0 4
697 0 0 1000000000 0 9 0
698 0 0 1000000000 0 0 8
699 0 0 1000000000 0 4 0
700 0 0 1000000000 0 0 10
701 0 0 1000000000 0 6 0
702 0 0 1000000000 0 0 9
703 0 0 1000000000 0 10 0
704 0 0 1000000000 0 0 4
705 0 0 1000000000 0 4 0
706 0 0 1000000000 0 0 1
707 0 0 1000000000 0 7 0
708 0 0 1000000000 0 0 1
709 0 0 1000000000 0 5 0
710 0 0 1000000000 0 0 10
711 0 0 1000000000 0 10 0
712 0 0 1000000000 0 0 6
713 0 0 1000000000 0 8 0
714 0 0 1000000000 0 0 5
715 0 0 1000000000 0 6 0
716 0 0 1000000000 0 0 3
717 0 0 1000000000 0 6 0
718 0 0 1000000000 0 0 3
719 0 0 1000000000 0 5 0
720 0 0 1000000000 0 0 3
721 0 0 1000000000 0 9 0
722 0 0 1000000000 0 0 8
723 0 0 1000000000 0 7 0
724 0 0 1000000000 0 0 1
725 0 0 1000000000 0 6 0
726 0 0 1000000000 0 0 3
727 0 0 1000000000 0 6 0
728 0 0 1000000000 0 0 8
729 0 0 1000000000 0 8 0
730 0 0 1000000000 0 0 3
731 0 0 1000000000 0 10 0
732 0 0 1000000000 0 0 1
733 0 0 1000000000 0 4 0
734 0 0 1000000000 0 0 9
735 0 0 1000000000 0 5 0
736 0 0 1000000000 0 0 5
737 0 0 1000000000 0 9 0
738 0 0 1000000000 0 0 1
739 0 0 1000000000 0 10 0
740 0 0 1000000000 0 0 3
741 0 0 1000000000 0 8 0
742 0 0 1000000000 0 0 3
743 0 0 1000000000 0 7 0
744 0 0 1000000000 0 0 1
745 0 0 1000000000 0 9 0
746 0 0 1000000000 0 0 2
747 0 0 1000000000 0 3 0
748 0 0 1000000000 0 0 3
749 0 0 1000000000 0 5 0
750 0 0 1000000000 0 0 2
751 0 0 1000000000 0 8 0
752 0 0 1000000000 0 0 1
753 0 0 1000000000 0 7 0
754 0 0 1000000000 0 0 9
755 0 0 1000000000 0 2 0
756 0 0 1000000000 0 0 6
757 0 0 1000000000 0 5 0
758 0 0 1000000000 0 0 9
759 0 0 1000000000 0 3 0
760 0 0 1000000000 0 0 3
761 0 0 1000000000 0 4 0
762 0 0 1000000000 0 0 6
763 0 0 1000000000 0 3 0
764 0 0 1000000000 0 0 4
765 0 0 1000000000 0 7 0
766 0 0 1000000000 0 0 9
767 0 0 1000000000 0 3 0
768 0 0 1000000000 0 0 3
769 0 0 1000000000 0 5 0
770 0 0 1000000000 0 0 1
771 0 0 1000000000 0 5 0
772 0 0 1000000000 0 0 10
773 0 0 1000000000 0 8 0
774 0 0 1000000000 0 0 4
775 0 0 1000000000 0 4 0
776 0 0 1000000000 0 0 2
777 0 0 1000000000 0 7 0
778 0 0 1000000000 0 0 2
779 0 0 1000000000 0 1 0
780 0 0 1000000000 0 0 2
781 0 0 1000000000 0 9 0
782 0 0 1000000000 0 0 9
783 0 0 1000000000 0 10 0
784 0 0 1000000000 0 0 6
785 0 0 1000000000 0 10 0
786 0 0 1000000000 0 0 1
787 0 0 1000000000 0 9 0
788 0 0 1000000000 0 0 8
789 0 0 1000000000 0 8 0
790 0 0 1000000000 0 0 4
791 0 0 1000000000 0 2 0
792 0 0 1000000000 0 0 8
793 0 0 1000000000 0 5 0
794 0 0 1000000000 0 0 8
795 0 0 1000000000 0 1 0
796 0 0 1000000000 0 0 4
797 0 0 1000000000 0 5 0
798 0 0 1000000000 0 0 4
799 0 0 1000000000 0 6 0
800 0 0 1000000000 0 0 7
801 0 0 1000000000 0 9 0
802 0 0 1000000000 0 0 2
803 0 0 1000000000 0 1 0
804 0 0 1000000000 0 0 5
805 0 0 1000000000 0 9 0
806 0 0 1000000000 0 0 8
807 0 0 1000000000 0 4 0
808 0 0 1000000000 0 0 5
809 0 0 1000000000 0 8 0
810 0 0 1000000000 0 0 6
811 0 0 1000000000 0 9 0
812 0 0 1000000000 0 0 3
813 0 0 1000000000 0 10 0
814 0 0 1000000000 0 0 9
815 0 0 1000000000 0 5 0
816 0 0 1000000000 0 0 5
817 0 0 1000000000 0 3 0
818 0 0 1000000000 0 0 3
819 0 0 1000000000 0 8 0
820 0 0 1000000000 0 0 9
821 0 0 1000000000 0 7 0
822 0 0 1000000000 0 0 6
823 0 0 1000000000 0 7 0
824 0 0 1000000000 0 0 10
825 0 0 1000000000 0 7 0
826 0 0 1000000000 0 0 10
827 0 0 1000000000 0 4 0
828 0 0 1000000000 0 0 2
829 0 0 1000000000 0 1 0
830 0 0 1000000000 0 0 10
831 0 0 1000000000 0 9 0
832 0 0 1000000000 0 0 3
833 0 0 1000000000 0 6 0
834 0 0 1000000000 0 0 3
835 0 0 1000000000 0 9 0
836 0 0 1000000000 0 0 10
837 0 0 1000000000 0 1 0
838 0 0 1000000000 0 0 1
839 0 0 1000000000 0 1 0
840 0 0 1000000000 0 0 10
841 0 0 1000000000 0 8 0
842 0 0 1000000000 0 0 5
843 0 0 1000000000 0 7 0
844 0 0 1000000000 0 0 8
845 0 0 1000000000 0 8 0
846 0 0 1000000000 0 0 8
847 0 0 1000000000 0 7 0
848 0 0 1000000000 0 0 5
849 0 0 1000000000 0 4 0
850 0 0 1000000000 0 0 5
851 0 0 1000000000 0 7 0
852 0 0 1000000000 0 0 1
853 0 0 1000000000 0 2 0
854 0 0 1000000000 0 0 9
855 0 0 1000000000 0 10 0
856 0 0 1000000000 0 0 7
857 0 0 1000000000 0 6 0
858 0 0 1000000000 0 0 1
859 0 0 1000000000 0 1 0
860 0 0 1000000000 0 0 1
861 0 0 1000000000 0 5 0
862 0 0 1000000000 0 0 3
863 0 0 1000000000 0 5 0
864 0 0 1000000000 0 0 10
865 0 0 1000000000 0 4 0
866 0 0 1000000000 0 0 5
867 0 0 1000000000 0 6 0
868 0 0 1000000000 0 0 8
869 0 0 1000000000 0 6 0
870 0 0 1000000000 0 0 7
871 0 0 1000000000 0 9 0
872 0 0 1000000000 0 0 3
873 0 0 1000000000 0 3 0
874 0 0 1000000000 0 0 9
875 0 0 1000000000 0 2 0
876 0 0 1000000000 0 0 1
877 0 0 1000000000 0 6 0
878 0 0 1000000000 0 0 10
879 0 0 1000000000 0 10 0
880 0 0 1000000000 0 0 5
881 0 0 1000000000 0 8 0
882 0 0 1000000000 0 0 9
883 0 0 1000000000 0 5 0
884 0 0 1000000000 0 0 9
885 0 0 1000000000 0 7 0
886 0 0 1000000000 0 0 8
887 0 0 1000000000 0 6 0
888 0 0 1000000000 0 0 6
889 0 0 1000000000 0 10 0
890 0 0 1000000000 0 0 2
891 0 0 1000000000 0 10 0
892 0 0 1000000000 0 0 4
893 0 0 1000000000 0 10 0
894 0 0 1000000000 0 0 7
895 0 0 1000000000 0 10 0
896 0 0 1000000000 0 0 5
897 0 0 1000000000 0 9 0
898 0 0 1000000000 0 0 8
899 0 0 1000000000 0 2 0
900 0 0 1000000000 0 0 3
901 0 0 1000000000 0 5 0
902 0 0 1000000000 0 0 3
903 0 0 1000000000 0 2 0
904 0 0 1000000000 0 0 3
905 0 0 1000000000 0 2 0
906 0 0 1000000000 0 0 7
907 0 0 1000000000 0 6 0
908 0 0 1000000000 0 0 5
909 0 0 1000000000 0 5 0
910 0 0 1000000000 0 0 2
911 0 0 1000000000 0 8 0
912 0 0 1000000000 0 0 3
913 0 0 1000000000 0 3 0
914 0 0 1000000000 0 0 4
915 0 0 1000000000 0 1 0
916 0 0 1000000000 0 0 3
917 0 0 1000000000 0 1 0
918 0 0 1000000000 0 0 8
919 0 0 1000000000 0 10 0
920 0 0 1000000000 0 0 6
921 0 0 1000000000 0 5 0
922 0 0 1000000000 0 0 3
923 0 0 1000000000 0 2 0
924 0 0 1000000000 0 0 4
925 0 0 1000000000 0 6 0
926 0 0 1000000000 0 0 8
927 0 0 1000000000 0 7 0
928 0 0 1000000000 0 0 6
929 0 0 1000000000 0 7 0
930 0 0 1000000000 0 0 3
931 0 0 1000000000 0 6 0
932 0 0 1000000000 0 0 6
933 0 0 1000000000 0 10 0
934 0 0 1000000000 0 0 3
935 0 0 1000000000 0 5 0
936 0 0 1000000000 0 0 8
937 0 0 1000000000 0 9 0
938 0 0 1000000000 0 0 1
939 0 0 1000000000 0 5 0
940 0 0 1000000000 0 0 2
941 0 0 1000000000 0 7 0
942 0 0 1000000000 0 0 8
943 0 0 1000000000 0 5 0
944 0 0 1000000000 0 0 5
945 0 0 1000000000 0 4 0
946 0 0 1000000000 0 0 1
947 0 0 1000000000 0 5 0
948 0 0 1000000000 0 0 8
949 0 0 1000000000 0 8 0
950 0 0 1000000000 0 0 6
951 0 0 1000000000 0 5 0
952 0 0 1000000000 0 0 5
953 0 0 1000000000 0 7 0
954 0 0 1000000000 0 0 5
955 0 0 1000000000 0 4 0
956 0 0 1000000000 0 0 4
957 0 0 1000000000 0 6 0
958 0 0 1000000000 0 0 10
959 0 0 1000000000 0 10 0
960 0 0 1000000000 0 0 2
961 0 0 1000000000 0 6 0
962 0 0 1000000000 0 0 10
963 0 0 1000000000 0 7 0
964 0 0 1000000000 0 0 1
965 0 0 1000000000 0 3 0
966 0 0 1000000000 0 0 2
967 0 0 1000000000 0 1 0
968 0 0 1000000000 0 0 5
969 0 0 1000000000 0 2 0
970 0 0 1000000000 0 0 1
971 0 0 1000000000 0 10 0
972 0 0 1000000000 0 0 5
973 0 0 1000000000 0 3 0
974 0 0 1000000000 0 0 4
975 0 0 1000000000 0 5 0
976 0 0 1000000000 0 0 1
977 0 0 1000000000 0 9 0
978 0 0 1000000000 0 0 10
979 0 0 1000000000 0 5 0
980 0 0 1000000000 0 0 6
981 0 0 1000000000 0 8 0
982 0 0 1000000000 0 0 6
983 0 0 1000000000 0 6 0
984 0 0 1000000000 0 0 10
985 0 0 1000000000 0 3 0
986 0 0 1000000000 0 0 8
987 0 0 1000000000 0 7 0
988 0 0 1000000000 0 0 6
989 0 0 1000000000 0 1 0
990 0 0 1000000000 0 0 1
991 0 0 1000000000 0 3 0
992 0 0 1000000000 0 0 9
993 0 0 1000000000 0 2 0
994 0 0 1000000000 0 0 8
995 0 0 1000000000 0 4 0
996 0 0 1000000000 0 0 10
997 0 0 1000000000 0 5 0
998 0 0 1000000000 0 0 7
999 0 0 1000000000 0 5 0
1000 0 0 1000000000 0 0 2
1001 0 0 1000000000 0 7 0
